# Random Circle Problem
param d := 0.05; 
param n := 10; 
param radius := 2.00; 
param v0 := 
1 4.91
2 5.15
3 4.93
4 5.51
5 5.33
6 5.73
7 5.31
8 4.91
9 4.93
10 5.84
;
param cap := 
1 3.34707
2 3.75878
3 4.86610
4 4.54758
5 6.04373
6 0.14255
7 0.99167
8 1.15257
9 2.09174
10 2.23037
;
param x0 := 
1 2.00
2 1.62
3 0.62
4 -0.62
5 -1.62
6 -2.00
7 -1.62
8 -0.62
9 0.62
10 1.62
;
param y0 := 
1 -0.00
2 1.18
3 1.90
4 1.90
5 1.18
6 0.00
7 -1.18
8 -1.90
9 -1.90
10 -1.18
;
